MARKOV
16
2 2 2 2 2 2 2 2 2 2 2 2 2 2 2 2 
24
2 0 1
2 0 4
2 1 2
2 1 5
2 2 3
2 2 6
2 3 7
2 4 5
2 4 8
2 5 6
2 5 9
2 6 7
2 6 10
2 7 11
2 8 9
2 8 12
2 9 10
2 9 13
2 10 11
2 10 14
2 11 15
2 12 13
2 13 14
2 14 15
4
2.898822 0.344968 0.344968 2.898822 
4
3.532275 0.283104 0.283104 3.532275 
4
4.286962 0.233265 0.233265 4.286962 
4
1.131303 0.883936 0.883936 1.131303 
4
4.304624 0.232308 0.232308 4.304624 
4
6.304352 0.158621 0.158621 6.304352 
4
5.243807 0.190701 0.190701 5.243807 
4
3.453231 0.289584 0.289584 3.453231 
4
1.319567 0.757824 0.757824 1.319567 
4
1.171365 0.853705 0.853705 1.171365 
4
2.115106 0.472790 0.472790 2.115106 
4
3.694928 0.270641 0.270641 3.694928 
4
4.462763 0.224076 0.224076 4.462763 
4
3.348452 0.298645 0.298645 3.348452 
4
6.766068 0.147796 0.147796 6.766068 
4
5.951549 0.168023 0.168023 5.951549 
4
2.576286 0.388156 0.388156 2.576286 
4
2.289313 0.436812 0.436812 2.289313 
4
5.749245 0.173936 0.173936 5.749245 
4
6.592425 0.151689 0.151689 6.592425 
4
7.356572 0.135933 0.135933 7.356572 
4
4.482517 0.223089 0.223089 4.482517 
4
1.696725 0.589371 0.589371 1.696725 
4
1.299030 0.769805 0.769805 1.299030 
